POSCAR file written by OVITO Basic 3.7.3
1.0
        7.5349998474         0.0000000000         0.0000000000
        0.0000000000        18.1732997894         0.0000000000
        0.0000000000         0.0000000000        12.3816995621
   Si    O
   50   50
Direct
     0.872418046         0.611109674         0.110631816
     0.957158625         0.835180759         0.089318909
     0.422051758         0.702122331         0.005632506
     0.835069716         0.743012547         0.564034820
     0.213498354         0.575694025         0.417374820
     0.411507607         0.841438234         0.728174627
     0.848737895         0.966460168         0.249419704
     0.361428022         0.501157761         0.719294608
     0.648607850         0.585053921         0.985424459
     0.714549422         0.614805281         0.803752363
     0.178015918         0.681849778         0.743102312
     0.296161920         0.363346219         0.184992358
     0.141117454         0.773746669         0.444332331
     0.022830790         0.545514584         0.255683005
     0.661080241         0.277691990         0.869202137
     0.589454532         0.458963454         0.261551321
     0.980655551         0.478248298         0.609455109
     0.032342400         0.110864289         0.267917991
     0.960871935         0.278817266         0.264727801
     0.469408095         0.919395506         0.185439005
     0.154338419         0.659169793         0.930548251
     0.798936963         0.715241015         0.220702335
     0.340355664         0.670574963         0.186442897
     0.430704683         0.200904071         0.491374373
     0.814220309         0.375789195         0.448871315
     0.095154613         0.491683394         0.085509263
     0.670934319         0.704064190         0.402669281
     0.364960849         0.565864801         0.065493427
     0.446838766         0.620456934         0.705189943
     0.383692086         0.840496182         0.391828269
     0.155624419         0.530209720         0.907979488
     0.356183141         0.963961959         0.565061331
     0.332358301         0.750518620         0.607367337
     0.657729268         0.085981078         0.575347483
     0.815405488         0.136636168         0.801322103
     0.108959518         0.878668129         0.856226504
     0.490079612         0.132371679         0.923238337
     0.792733908         0.798004806         0.739723980
     0.293336421         0.066911347         0.101539373
     0.920073032         0.638390958         0.661771834
     0.687644303         0.729945004         0.895897150
     0.106562711         0.739744544         0.254786491
     0.672630429         0.348266989         0.099307843
     0.149443924         0.052600242         0.879817784
     0.979157269         0.660542071         0.394975662
     0.672460496         0.388279527         0.674923480
     0.468894482         0.624168396         0.516697228
     0.990869284         0.014067342         0.460458577
     0.678281307         0.783881843         0.077374674
     0.478545457         0.612549186         0.328597069
     0.720921040         0.128421366         0.683240533
     0.185769081         0.488089681         0.646079302
     0.346011937         0.877766311         0.274662614
     0.930700719         0.904622138         0.168891996
     0.355085611         0.982410431         0.125462577
     0.862108827         0.432901025         0.698574483
     0.131158590         0.061215632         0.011865899
     0.005008626         0.096645080         0.807475567
     0.940980792         0.190502554         0.258229494
     0.169674844         0.404149503         0.094988577
     0.155098885         0.986029565         0.533837855
     0.627251446         0.855714142         0.737662017
     0.975400090         0.843693256         0.763778031
     0.124485739         0.789943457         0.139790982
     0.693639040         0.419844508         0.360202551
     0.521567345         0.453394264         0.669103622
     0.547779679         0.781593859         0.381988734
     0.139431983         0.966034234         0.846617997
     0.891175866         0.559497178         0.593554199
     0.928453922         0.951443613         0.371429592
     0.672725976         0.435631961         0.142613694
     0.827207685         0.224379182         0.834291756
     0.301860631         0.835947752         0.843321979
     0.896806896         0.305666000         0.385107875
     0.608343720         0.547399759         0.277980417
     0.680925071         0.097316399         0.887773931
     0.634797573         0.957885444         0.247875482
     0.382436633         0.429532886         0.260833323
     0.478574663         0.036247682         0.584137857
     0.997734547         0.662685394         0.025969779
     0.968410075         0.431741625         0.496848583
     0.608346403         0.150635272         0.488453954
     0.612785697         0.326787084         0.762538254
     0.346171230         0.918615162         0.676968455
     0.338995367         0.091961280         0.850170791
     0.692848086         0.351377040         0.553718805
     0.834164560         0.312573403         0.169971019
     0.168072999         0.306750566         0.248973891
     0.455057710         0.115456194         0.050720017
     0.328901142         0.486360788         0.847528219
     0.706136703         0.332784355         0.971162260
     0.435483724         0.909404457         0.471466780
     0.818602502         0.034976035         0.532739460
     0.011147976         0.864212871         0.970484614
     0.057558063         0.087647259         0.394825429
     0.226394162         0.108407386         0.210625350
     0.467974782         0.322160542         0.130848750
     0.543219686         0.856241286         0.101015210
     0.905445218         0.048827674         0.210715815
     0.497677505         0.222053781         0.903121591
