POSCAR File
1
1 0 0
0 1 0
0 0 1
Li
1
Direct
0 0 0